(set-logic QF_S)
(set-option :strings-exp true)
(set-option :produce-models true)
(declare-fun sigmaStar_0 () String)
(declare-fun literal_1 () String)
(assert (= literal_1 "\x6c\x6f\x67\x69\x6e\x61\x73\x70\x61\x73\x73\x77\x6f\x72\x64\x65\x78\x70\x6c\x61\x69\x6e"))
(assert (str.in.re literal_1 (re.++ (re.* re.allchar) (re.++ (str.to.re "\x5c\x3c\x53\x43\x52\x49\x50\x54") (re.* re.allchar)))))
(check-sat)
(get-model)
